% demand
num_movements = 38;
loading_factor = [1300, 800, 1600, 850, 1450, 1750, 1600, 1800, 1000, 1600, 1750, 1550, 950, 1300, 1450, 1200, 1950, 1250, 1000, 1950, 800, 1300, 1050, 1750, 800, 1900, 1500, 1800, 1450, 850, 1950, 1750, 1000, 1800, 1550, 1350, 1550, 1700];
pickup_time = [0, 0, 0, 1, 1, 1, 1, 2, 2, 3, 3, 4, 4, 4, 5, 5, 5, 5, 5, 5, 5, 6, 6, 6, 6, 6, 7, 8, 8, 8, 8, 9, 12, 12, 12, 12, 12, 12];
delivery_time = [1, 1, 1, 3, 5, 4, 4, 4, 4, 4, 5, 5, 5, 5, 6, 6, 6, 6, 6, 6, 7, 12, 9, 8, 7, 12, 8, 11, 10, 10, 11, 13, 13, 13, 13, 13, 13, 13];

% transporter definition
total_capacity = 11000;
num_decks = 4;
capacity = [3000, 3000, 1000, 4000];

% ways out of decks
num_ways_out = 2;
paths_out = array3d(decks, ways_out, decks, [
% ways out of deck d1
2, 4, 0, 0, 3, 4, 0, 0, 

% ways out of deck d2
4, 0, 0, 0, 0, 0, 0, 0,	

% ways out of deck d3
4, 0, 0, 0, 0, 0, 0, 0,	

% ways out of deck d4
0, 0, 0, 0,	0, 0, 0, 0,	

]);

